inputs/input18.dzn
n = 35;
l = 125;
s = 118;
r = 118;
f = 55;
forbidden = [| 35, 33
	| 31, 17
	| 14, 1
	| 9, 32
	| 19, 14
	| 20, 7
	| 29, 12
	| 2, 9
	| 19, 15
	| 12, 15
	| 1, 35
	| 32, 30
	| 18, 28
	| 32, 8
	| 30, 23
	| 18, 12
	| 14, 34
	| 27, 20
	| 9, 8
	| 28, 8
	| 17, 34
	| 18, 18
	| 20, 4
	| 12, 31
	| 29, 19
	| 11, 15
	| 26, 9
	| 19, 21
	| 35, 21
	| 30, 4
	| 2, 7
	| 12, 32
	| 23, 12
	| 16, 7
	| 23, 33
	| 11, 34
	| 33, 4
	| 30, 1
	| 17, 9
	| 14, 4
	| 4, 7
	| 11, 18
	| 22, 29
	| 30, 18
	| 32, 26
	| 23, 3
	| 16, 6
	| 29, 2
	| 9, 3
	| 34, 23
	| 11, 22
	| 30, 34
	| 18, 22
	| 27, 3
	| 6, 14
	|];