inputs/input18.lp
#const n = 35.
#const l = 125.
#const s = 118.
#const r = 118.
#const f = 55.
val(35, 33, xxx).
val(31, 17, xxx).
val(14, 1, xxx).
val(9, 32, xxx).
val(19, 14, xxx).
val(20, 7, xxx).
val(29, 12, xxx).
val(2, 9, xxx).
val(19, 15, xxx).
val(12, 15, xxx).
val(1, 35, xxx).
val(32, 30, xxx).
val(18, 28, xxx).
val(32, 8, xxx).
val(30, 23, xxx).
val(18, 12, xxx).
val(14, 34, xxx).
val(27, 20, xxx).
val(9, 8, xxx).
val(28, 8, xxx).
val(17, 34, xxx).
val(18, 18, xxx).
val(20, 4, xxx).
val(12, 31, xxx).
val(29, 19, xxx).
val(11, 15, xxx).
val(26, 9, xxx).
val(19, 21, xxx).
val(35, 21, xxx).
val(30, 4, xxx).
val(2, 7, xxx).
val(12, 32, xxx).
val(23, 12, xxx).
val(16, 7, xxx).
val(23, 33, xxx).
val(11, 34, xxx).
val(33, 4, xxx).
val(30, 1, xxx).
val(17, 9, xxx).
val(14, 4, xxx).
val(4, 7, xxx).
val(11, 18, xxx).
val(22, 29, xxx).
val(30, 18, xxx).
val(32, 26, xxx).
val(23, 3, xxx).
val(16, 6, xxx).
val(29, 2, xxx).
val(9, 3, xxx).
val(34, 23, xxx).
val(11, 22, xxx).
val(30, 34, xxx).
val(18, 22, xxx).
val(27, 3, xxx).
val(6, 14, xxx).